p cnf 299 2520
137 148 202 239 0
88 115 165 0
61 109 0
95 129 140 177 178 250 0
48 153 0
46 126 144 254 0
113 118 256 259 0
103 107 163 172 181 193 0
136 292 0
186 187 189 0
154 192 195 196 261 263 0
147 170 197 198 204 0
41 120 160 205 210 0
105 132 168 180 276 0
102 141 207 208 0
85 90 92 93 99 101 0
79 81 82 151 0
75 77 123 125 128 155 0
69 71 73 74 111 0
67 106 161 166 0
66 134 143 0
65 146 200 0
62 64 158 0
60 139 175 0
56 58 87 94 0
52 54 55 0
49 51 150 169 0
47 76 121 127 0
45 110 117 0
42 44 185 0
38 39 40 0
36 114 183 0
104 206 209 212 0
83 213 214 0
78 80 216 0
70 72 217 0
68 135 162 218 219 0
220 221 222 223 0
225 226 227 0
159 228 231 232 0
63 233 234 235 0
236 237 238 240 0
97 131 229 241 242 0
57 59 89 243 244 0
53 245 248 0
50 176 249 251 0
167 173 182 252 0
145 253 255 0
43 190 257 258 260 0
138 171 194 0
37 191 262 264 0
184 203 0
91 100 266 0
152 215 267 0
112 268 269 274 0
-107 -118 0
-118 -186 0
-118 -170 0
-107 -186 0
-107 -170 0
-170 -186 0
-101 -207 0
-82 -207 0
-74 -207 0
-82 -101 0
-74 -101 0
-74 -82 0
-45 -47 0
-47 -199 0
-40 -47 0
-45 -199 0
-40 -45 0
-40 -199 0
-104 -114 0
-72 -114 0
-68 -114 0
-72 -104 0
-68 -104 0
-68 -72 0
-233 -270 0
-241 -270 0
-59 -270 0
-233 -241 0
-59 -233 0
-59 -241 0
-133 -272 0
-133 -273 0
-133 -268 0
-272 -273 0
-268 -272 0
-268 -273 0
-118 -207 0
-47 -118 0
-114 -118 0
-47 -207 0
-114 -207 0
-47 -114 0
-101 -107 0
-45 -107 0
-104 -107 0
-45 -101 0
-101 -104 0
-45 -104 0
-82 -186 0
-186 -270 0
-133 -186 0
-82 -270 0
-82 -133 0
-133 -270 0
-74 -170 0
-170 -233 0
-170 -272 0
-74 -233 0
-74 -272 0
-233 -272 0
-72 -199 0
-199 -241 0
-199 -273 0
-72 -241 0
-72 -273 0
-241 -273 0
-40 -68 0
-40 -59 0
-40 -268 0
-59 -68 0
-68 -268 0
-59 -268 0
-88 -230 0
-177 -230 0
-230 -247 0
-144 -230 0
-88 -177 0
-88 -247 0
-88 -144 0
-177 -247 0
-144 -177 0
-144 -247 0
-193 -292 0
-192 -193 0
-193 -210 0
-193 -276 0
-192 -292 0
-210 -292 0
-276 -292 0
-192 -210 0
-192 -276 0
-210 -276 0
-99 -275 0
-77 -99 0
-99 -106 0
-99 -278 0
-77 -275 0
-106 -275 0
-275 -278 0
-77 -106 0
-77 -278 0
-106 -278 0
-124 -162 0
-249 -279 0
-193 -230 0
-99 -230 0
-230 -249 0
-99 -193 0
-193 -249 0
-99 -249 0
-88 -292 0
-88 -275 0
-88 -279 0
-275 -292 0
-279 -292 0
-275 -279 0
-177 -192 0
-77 -177 0
-77 -192 0
-210 -247 0
-106 -247 0
-124 -247 0
-106 -210 0
-124 -210 0
-106 -124 0
-144 -276 0
-144 -278 0
-144 -162 0
-276 -278 0
-162 -276 0
-162 -278 0
-137 -280 0
-137 -165 0
-109 -137 0
-137 -140 0
-137 -281 0
-137 -282 0
-137 -153 0
-126 -137 0
-165 -280 0
-109 -280 0
-140 -280 0
-280 -281 0
-280 -282 0
-153 -280 0
-126 -280 0
-109 -165 0
-140 -165 0
-165 -281 0
-165 -282 0
-153 -165 0
-126 -165 0
-109 -140 0
-109 -281 0
-109 -282 0
-109 -153 0
-109 -126 0
-140 -281 0
-140 -282 0
-140 -153 0
-126 -140 0
-281 -282 0
-153 -281 0
-126 -281 0
-153 -282 0
-126 -282 0
-126 -153 0
-103 -113 0
-113 -136 0
-113 -187 0
-113 -195 0
-113 -197 0
-113 -160 0
-113 -283 0
-113 -168 0
-103 -136 0
-103 -187 0
-103 -195 0
-103 -197 0
-103 -160 0
-103 -283 0
-103 -168 0
-136 -187 0
-136 -195 0
-136 -197 0
-136 -160 0
-136 -283 0
-136 -168 0
-187 -195 0
-187 -197 0
-160 -187 0
-187 -283 0
-168 -187 0
-195 -197 0
-160 -195 0
-195 -283 0
-168 -195 0
-160 -197 0
-197 -283 0
-168 -197 0
-160 -283 0
-160 -168 0
-168 -283 0
-93 -208 0
-208 -284 0
-81 -208 0
-128 -208 0
-73 -208 0
-166 -208 0
-143 -208 0
-208 -285 0
-93 -284 0
-81 -93 0
-93 -128 0
-73 -93 0
-93 -166 0
-93 -143 0
-93 -285 0
-81 -284 0
-128 -284 0
-73 -284 0
-166 -284 0
-143 -284 0
-284 -285 0
-81 -128 0
-73 -81 0
-81 -166 0
-81 -143 0
-81 -285 0
-73 -128 0
-128 -166 0
-128 -143 0
-128 -285 0
-73 -166 0
-73 -143 0
-73 -285 0
-143 -166 0
-166 -285 0
-143 -285 0
-65 -224 0
-149 -224 0
-64 -224 0
-116 -224 0
-60 -224 0
-94 -224 0
-55 -224 0
-51 -224 0
-65 -149 0
-64 -65 0
-65 -116 0
-60 -65 0
-65 -94 0
-55 -65 0
-51 -65 0
-64 -149 0
-116 -149 0
-60 -149 0
-94 -149 0
-55 -149 0
-51 -149 0
-64 -116 0
-60 -64 0
-64 -94 0
-55 -64 0
-51 -64 0
-60 -116 0
-94 -116 0
-55 -116 0
-51 -116 0
-60 -94 0
-55 -60 0
-51 -60 0
-55 -94 0
-51 -94 0
-51 -55 0
-76 -117 0
-76 -286 0
-76 -287 0
-76 -185 0
-76 -288 0
-76 -289 0
-76 -290 0
-39 -76 0
-117 -286 0
-117 -287 0
-117 -185 0
-117 -288 0
-117 -289 0
-117 -290 0
-39 -117 0
-286 -287 0
-185 -286 0
-286 -288 0
-286 -289 0
-286 -290 0
-39 -286 0
-185 -287 0
-287 -288 0
-287 -289 0
-287 -290 0
-39 -287 0
-185 -288 0
-185 -289 0
-185 -290 0
-39 -185 0
-288 -289 0
-288 -290 0
-39 -288 0
-289 -290 0
-39 -289 0
-39 -290 0
-36 -206 0
-36 -142 0
-36 -86 0
-36 -213 0
-36 -80 0
-36 -156 0
-36 -70 0
-36 -218 0
-142 -206 0
-86 -206 0
-206 -213 0
-80 -206 0
-156 -206 0
-70 -206 0
-206 -218 0
-86 -142 0
-142 -213 0
-80 -142 0
-142 -156 0
-70 -142 0
-142 -218 0
-86 -213 0
-80 -86 0
-86 -156 0
-70 -86 0
-86 -218 0
-80 -213 0
-156 -213 0
-70 -213 0
-213 -218 0
-80 -156 0
-70 -80 0
-80 -218 0
-70 -156 0
-156 -218 0
-70 -218 0
-220 -291 0
-225 -291 0
-201 -291 0
-228 -291 0
-63 -291 0
-236 -291 0
-229 -291 0
-89 -291 0
-220 -225 0
-201 -220 0
-220 -228 0
-63 -220 0
-220 -236 0
-220 -229 0
-89 -220 0
-201 -225 0
-225 -228 0
-63 -225 0
-225 -236 0
-225 -229 0
-89 -225 0
-201 -228 0
-63 -201 0
-201 -236 0
-201 -229 0
-89 -201 0
-63 -228 0
-228 -236 0
-228 -229 0
-89 -228 0
-63 -236 0
-63 -229 0
-63 -89 0
-229 -236 0
-89 -236 0
-89 -229 0
-176 -245 0
-122 -245 0
-245 -246 0
-167 -245 0
-145 -245 0
-43 -245 0
-194 -245 0
-245 -293 0
-122 -176 0
-176 -246 0
-167 -176 0
-145 -176 0
-43 -176 0
-176 -194 0
-176 -293 0
-122 -246 0
-122 -167 0
-122 -145 0
-43 -122 0
-122 -194 0
-122 -293 0
-167 -246 0
-145 -246 0
-43 -246 0
-194 -246 0
-246 -293 0
-145 -167 0
-43 -167 0
-167 -194 0
-167 -293 0
-43 -145 0
-145 -194 0
-145 -293 0
-43 -194 0
-43 -293 0
-194 -293 0
-157 -191 0
-157 -184 0
-157 -211 0
-100 -157 0
-157 -277 0
-157 -215 0
-98 -157 0
-157 -274 0
-184 -191 0
-191 -211 0
-100 -191 0
-191 -277 0
-191 -215 0
-98 -191 0
-191 -274 0
-184 -211 0
-100 -184 0
-184 -277 0
-184 -215 0
-98 -184 0
-184 -274 0
-100 -211 0
-211 -277 0
-211 -215 0
-98 -211 0
-211 -274 0
-100 -277 0
-100 -215 0
-98 -100 0
-100 -274 0
-215 -277 0
-98 -277 0
-274 -277 0
-98 -215 0
-215 -274 0
-98 -274 0
-113 -137 0
-137 -208 0
-137 -224 0
-76 -137 0
-36 -137 0
-137 -291 0
-137 -245 0
-137 -157 0
-113 -208 0
-113 -224 0
-76 -113 0
-36 -113 0
-113 -291 0
-113 -245 0
-113 -157 0
-208 -224 0
-76 -208 0
-36 -208 0
-208 -291 0
-208 -245 0
-157 -208 0
-76 -224 0
-36 -224 0
-224 -291 0
-224 -245 0
-157 -224 0
-36 -76 0
-76 -291 0
-76 -245 0
-76 -157 0
-36 -291 0
-36 -245 0
-36 -157 0
-245 -291 0
-157 -291 0
-157 -245 0
-103 -280 0
-93 -280 0
-65 -280 0
-117 -280 0
-206 -280 0
-220 -280 0
-176 -280 0
-191 -280 0
-93 -103 0
-65 -103 0
-103 -117 0
-103 -206 0
-103 -220 0
-103 -176 0
-103 -191 0
-65 -93 0
-93 -117 0
-93 -206 0
-93 -220 0
-93 -176 0
-93 -191 0
-65 -117 0
-65 -206 0
-65 -220 0
-65 -176 0
-65 -191 0
-117 -206 0
-117 -220 0
-117 -176 0
-117 -191 0
-206 -220 0
-176 -206 0
-191 -206 0
-176 -220 0
-191 -220 0
-176 -191 0
-136 -165 0
-165 -284 0
-149 -165 0
-165 -286 0
-142 -165 0
-165 -225 0
-122 -165 0
-165 -184 0
-136 -284 0
-136 -149 0
-136 -286 0
-136 -142 0
-136 -225 0
-122 -136 0
-136 -184 0
-149 -284 0
-284 -286 0
-142 -284 0
-225 -284 0
-122 -284 0
-184 -284 0
-149 -286 0
-142 -149 0
-149 -225 0
-122 -149 0
-149 -184 0
-142 -286 0
-225 -286 0
-122 -286 0
-184 -286 0
-142 -225 0
-122 -142 0
-142 -184 0
-122 -225 0
-184 -225 0
-122 -184 0
-109 -187 0
-81 -109 0
-64 -109 0
-109 -287 0
-86 -109 0
-109 -201 0
-109 -246 0
-109 -211 0
-81 -187 0
-64 -187 0
-187 -287 0
-86 -187 0
-187 -201 0
-187 -246 0
-187 -211 0
-64 -81 0
-81 -287 0
-81 -86 0
-81 -201 0
-81 -246 0
-81 -211 0
-64 -287 0
-64 -86 0
-64 -201 0
-64 -246 0
-64 -211 0
-86 -287 0
-201 -287 0
-246 -287 0
-211 -287 0
-86 -201 0
-86 -246 0
-86 -211 0
-201 -246 0
-201 -211 0
-211 -246 0
-140 -195 0
-128 -140 0
-116 -140 0
-140 -185 0
-140 -213 0
-140 -228 0
-140 -167 0
-100 -140 0
-128 -195 0
-116 -195 0
-185 -195 0
-195 -213 0
-195 -228 0
-167 -195 0
-100 -195 0
-116 -128 0
-128 -185 0
-128 -213 0
-128 -228 0
-128 -167 0
-100 -128 0
-116 -185 0
-116 -213 0
-116 -228 0
-116 -167 0
-100 -116 0
-185 -213 0
-185 -228 0
-167 -185 0
-100 -185 0
-213 -228 0
-167 -213 0
-100 -213 0
-167 -228 0
-100 -228 0
-100 -167 0
-197 -281 0
-73 -281 0
-60 -281 0
-281 -288 0
-80 -281 0
-63 -281 0
-145 -281 0
-277 -281 0
-73 -197 0
-60 -197 0
-197 -288 0
-80 -197 0
-63 -197 0
-145 -197 0
-197 -277 0
-60 -73 0
-73 -288 0
-73 -80 0
-63 -73 0
-73 -145 0
-73 -277 0
-60 -288 0
-60 -80 0
-60 -63 0
-60 -145 0
-60 -277 0
-80 -288 0
-63 -288 0
-145 -288 0
-277 -288 0
-63 -80 0
-80 -145 0
-80 -277 0
-63 -145 0
-63 -277 0
-145 -277 0
-160 -282 0
-166 -282 0
-94 -282 0
-282 -289 0
-156 -282 0
-236 -282 0
-43 -282 0
-215 -282 0
-160 -166 0
-94 -160 0
-160 -289 0
-156 -160 0
-160 -236 0
-43 -160 0
-160 -215 0
-94 -166 0
-166 -289 0
-156 -166 0
-166 -236 0
-43 -166 0
-166 -215 0
-94 -289 0
-94 -156 0
-94 -236 0
-43 -94 0
-94 -215 0
-156 -289 0
-236 -289 0
-43 -289 0
-215 -289 0
-156 -236 0
-43 -156 0
-156 -215 0
-43 -236 0
-215 -236 0
-43 -215 0
-153 -283 0
-143 -153 0
-55 -153 0
-153 -290 0
-70 -153 0
-153 -229 0
-153 -194 0
-98 -153 0
-143 -283 0
-55 -283 0
-283 -290 0
-70 -283 0
-229 -283 0
-194 -283 0
-98 -283 0
-55 -143 0
-143 -290 0
-70 -143 0
-143 -229 0
-143 -194 0
-98 -143 0
-55 -290 0
-55 -70 0
-55 -229 0
-55 -194 0
-55 -98 0
-70 -290 0
-229 -290 0
-194 -290 0
-98 -290 0
-70 -229 0
-70 -194 0
-70 -98 0
-194 -229 0
-98 -229 0
-98 -194 0
-126 -168 0
-126 -285 0
-51 -126 0
-39 -126 0
-126 -218 0
-89 -126 0
-126 -293 0
-126 -274 0
-168 -285 0
-51 -168 0
-39 -168 0
-168 -218 0
-89 -168 0
-168 -293 0
-168 -274 0
-51 -285 0
-39 -285 0
-218 -285 0
-89 -285 0
-285 -293 0
-274 -285 0
-39 -51 0
-51 -218 0
-51 -89 0
-51 -293 0
-51 -274 0
-39 -218 0
-39 -89 0
-39 -293 0
-39 -274 0
-89 -218 0
-218 -293 0
-218 -274 0
-89 -293 0
-89 -274 0
-274 -293 0
-189 -261 0
-189 -265 0
-261 -265 0
-125 -151 0
-134 -151 0
-125 -134 0
-164 -294 0
-158 -294 0
-294 -295 0
-158 -164 0
-164 -295 0
-158 -295 0
-108 -127 0
-127 -174 0
-44 -127 0
-108 -174 0
-44 -108 0
-44 -174 0
-226 -296 0
-127 -294 0
-294 -296 0
-127 -296 0
-108 -164 0
-164 -226 0
-108 -226 0
-151 -189 0
-158 -189 0
-174 -189 0
-151 -158 0
-151 -174 0
-158 -174 0
-125 -261 0
-261 -295 0
-44 -261 0
-125 -295 0
-44 -125 0
-44 -295 0
-134 -265 0
-202 -297 0
-178 -202 0
-202 -298 0
-202 -299 0
-48 -202 0
-46 -202 0
-178 -297 0
-297 -298 0
-297 -299 0
-48 -297 0
-46 -297 0
-178 -298 0
-178 -299 0
-48 -178 0
-46 -178 0
-298 -299 0
-48 -298 0
-46 -298 0
-48 -299 0
-46 -299 0
-46 -48 0
-163 -256 0
-196 -256 0
-198 -256 0
-41 -256 0
-35 -256 0
-105 -256 0
-163 -196 0
-163 -198 0
-41 -163 0
-35 -163 0
-105 -163 0
-196 -198 0
-41 -196 0
-35 -196 0
-105 -196 0
-41 -198 0
-35 -198 0
-105 -198 0
-35 -41 0
-41 -105 0
-35 -105 0
-92 -102 0
-75 -102 0
-71 -102 0
-67 -102 0
-66 -102 0
-34 -102 0
-75 -92 0
-71 -92 0
-67 -92 0
-66 -92 0
-34 -92 0
-71 -75 0
-67 -75 0
-66 -75 0
-34 -75 0
-67 -71 0
-66 -71 0
-34 -71 0
-66 -67 0
-34 -67 0
-34 -66 0
-54 -58 0
-58 -150 0
-54 -150 0
-33 -221 0
-33 -231 0
-33 -234 0
-33 -237 0
-33 -242 0
-33 -57 0
-221 -231 0
-221 -234 0
-221 -237 0
-221 -242 0
-57 -221 0
-231 -234 0
-231 -237 0
-231 -242 0
-57 -231 0
-234 -237 0
-234 -242 0
-57 -234 0
-237 -242 0
-57 -237 0
-57 -242 0
-50 -53 0
-53 -252 0
-53 -253 0
-53 -190 0
-53 -138 0
-32 -53 0
-50 -252 0
-50 -253 0
-50 -190 0
-50 -138 0
-32 -50 0
-252 -253 0
-190 -252 0
-138 -252 0
-32 -252 0
-190 -253 0
-138 -253 0
-32 -253 0
-138 -190 0
-32 -190 0
-32 -138 0
-188 -262 0
-188 -266 0
-31 -188 0
-152 -188 0
-30 -188 0
-188 -269 0
-262 -266 0
-31 -262 0
-152 -262 0
-30 -262 0
-262 -269 0
-31 -266 0
-152 -266 0
-30 -266 0
-266 -269 0
-31 -152 0
-30 -31 0
-31 -269 0
-30 -152 0
-152 -269 0
-30 -269 0
-202 -256 0
-102 -202 0
-33 -202 0
-53 -202 0
-188 -202 0
-102 -256 0
-33 -256 0
-53 -256 0
-188 -256 0
-33 -102 0
-53 -102 0
-102 -188 0
-33 -53 0
-33 -188 0
-53 -188 0
-163 -297 0
-92 -297 0
-221 -297 0
-50 -297 0
-262 -297 0
-92 -163 0
-163 -221 0
-50 -163 0
-163 -262 0
-92 -221 0
-50 -92 0
-92 -262 0
-50 -221 0
-221 -262 0
-50 -262 0
-178 -196 0
-75 -178 0
-178 -231 0
-178 -252 0
-178 -266 0
-75 -196 0
-196 -231 0
-196 -252 0
-196 -266 0
-75 -231 0
-75 -252 0
-75 -266 0
-231 -252 0
-231 -266 0
-252 -266 0
-198 -298 0
-71 -298 0
-234 -298 0
-253 -298 0
-31 -298 0
-71 -198 0
-198 -234 0
-198 -253 0
-31 -198 0
-71 -234 0
-71 -253 0
-31 -71 0
-234 -253 0
-31 -234 0
-31 -253 0
-41 -299 0
-67 -299 0
-58 -299 0
-237 -299 0
-190 -299 0
-152 -299 0
-41 -67 0
-41 -58 0
-41 -237 0
-41 -190 0
-41 -152 0
-58 -67 0
-67 -237 0
-67 -190 0
-67 -152 0
-58 -237 0
-58 -190 0
-58 -152 0
-190 -237 0
-152 -237 0
-152 -190 0
-35 -48 0
-48 -66 0
-48 -54 0
-48 -242 0
-48 -138 0
-30 -48 0
-35 -66 0
-35 -54 0
-35 -242 0
-35 -138 0
-30 -35 0
-54 -66 0
-66 -242 0
-66 -138 0
-30 -66 0
-54 -242 0
-54 -138 0
-30 -54 0
-138 -242 0
-30 -242 0
-30 -138 0
-46 -105 0
-34 -46 0
-46 -150 0
-46 -57 0
-32 -46 0
-46 -269 0
-34 -105 0
-105 -150 0
-57 -105 0
-32 -105 0
-105 -269 0
-34 -150 0
-34 -57 0
-32 -34 0
-34 -269 0
-57 -150 0
-32 -150 0
-150 -269 0
-32 -57 0
-57 -269 0
-32 -269 0
-29 -250 0
-28 -29 0
-26 -29 0
-29 -254 0
-28 -250 0
-26 -250 0
-250 -254 0
-26 -28 0
-28 -254 0
-26 -254 0
-181 -263 0
-181 -204 0
-120 -181 0
-180 -181 0
-204 -263 0
-120 -263 0
-180 -263 0
-120 -204 0
-180 -204 0
-120 -180 0
-90 -123 0
-90 -111 0
-90 -161 0
-24 -90 0
-111 -123 0
-123 -161 0
-24 -123 0
-111 -161 0
-24 -111 0
-24 -161 0
-83 -216 0
-23 -257 0
-29 -181 0
-29 -90 0
-90 -181 0
-250 -263 0
-123 -250 0
-83 -250 0
-123 -263 0
-83 -263 0
-83 -123 0
-28 -204 0
-28 -111 0
-28 -216 0
-111 -204 0
-204 -216 0
-111 -216 0
-26 -120 0
-26 -161 0
-26 -257 0
-120 -161 0
-120 -257 0
-161 -257 0
-180 -254 0
-24 -254 0
-23 -254 0
-24 -180 0
-23 -180 0
-23 -24 0
-96 -148 0
-115 -148 0
-61 -148 0
-95 -148 0
-22 -148 0
-96 -115 0
-61 -96 0
-95 -96 0
-22 -96 0
-61 -115 0
-95 -115 0
-22 -115 0
-61 -95 0
-22 -61 0
-22 -95 0
-85 -141 0
-21 -141 0
-79 -141 0
-141 -155 0
-69 -141 0
-21 -85 0
-79 -85 0
-85 -155 0
-69 -85 0
-21 -79 0
-21 -155 0
-21 -69 0
-79 -155 0
-69 -79 0
-69 -155 0
-20 -200 0
-19 -20 0
-20 -62 0
-18 -20 0
-20 -175 0
-20 -87 0
-20 -169 0
-19 -200 0
-62 -200 0
-18 -200 0
-175 -200 0
-87 -200 0
-169 -200 0
-19 -62 0
-18 -19 0
-19 -175 0
-19 -87 0
-19 -169 0
-18 -62 0
-62 -175 0
-62 -87 0
-62 -169 0
-18 -175 0
-18 -87 0
-18 -169 0
-87 -175 0
-169 -175 0
-87 -169 0
-110 -121 0
-17 -121 0
-16 -121 0
-42 -121 0
-15 -121 0
-14 -121 0
-38 -121 0
-17 -110 0
-16 -110 0
-42 -110 0
-15 -110 0
-14 -110 0
-38 -110 0
-16 -17 0
-17 -42 0
-15 -17 0
-14 -17 0
-17 -38 0
-16 -42 0
-15 -16 0
-14 -16 0
-16 -38 0
-15 -42 0
-14 -42 0
-38 -42 0
-14 -15 0
-15 -38 0
-14 -38 0
-183 -209 0
-13 -183 0
-12 -183 0
-183 -214 0
-78 -183 0
-11 -183 0
-183 -219 0
-13 -209 0
-12 -209 0
-209 -214 0
-78 -209 0
-11 -209 0
-209 -219 0
-12 -13 0
-13 -214 0
-13 -78 0
-11 -13 0
-13 -219 0
-12 -214 0
-12 -78 0
-11 -12 0
-12 -219 0
-78 -214 0
-11 -214 0
-214 -219 0
-11 -78 0
-78 -219 0
-11 -219 0
-10 -222 0
-10 -227 0
-9 -10 0
-10 -232 0
-10 -235 0
-10 -238 0
-10 -243 0
-222 -227 0
-9 -222 0
-222 -232 0
-222 -235 0
-222 -238 0
-222 -243 0
-9 -227 0
-227 -232 0
-227 -235 0
-227 -238 0
-227 -243 0
-9 -232 0
-9 -235 0
-9 -238 0
-9 -243 0
-232 -235 0
-232 -238 0
-232 -243 0
-235 -238 0
-235 -243 0
-238 -243 0
-248 -251 0
-27 -248 0
-25 -248 0
-182 -248 0
-248 -255 0
-248 -258 0
-8 -248 0
-27 -251 0
-25 -251 0
-182 -251 0
-251 -255 0
-251 -258 0
-8 -251 0
-25 -27 0
-27 -182 0
-27 -255 0
-27 -258 0
-8 -27 0
-25 -182 0
-25 -255 0
-25 -258 0
-8 -25 0
-182 -255 0
-182 -258 0
-8 -182 0
-255 -258 0
-8 -255 0
-8 -258 0
-7 -264 0
-7 -203 0
-7 -119 0
-7 -91 0
-7 -179 0
-7 -267 0
-7 -112 0
-203 -264 0
-119 -264 0
-91 -264 0
-179 -264 0
-264 -267 0
-112 -264 0
-119 -203 0
-91 -203 0
-179 -203 0
-203 -267 0
-112 -203 0
-91 -119 0
-119 -179 0
-119 -267 0
-112 -119 0
-91 -179 0
-91 -267 0
-91 -112 0
-179 -267 0
-112 -179 0
-112 -267 0
-141 -148 0
-20 -148 0
-121 -148 0
-148 -183 0
-10 -148 0
-148 -248 0
-7 -148 0
-20 -141 0
-121 -141 0
-141 -183 0
-10 -141 0
-141 -248 0
-7 -141 0
-20 -121 0
-20 -183 0
-10 -20 0
-20 -248 0
-7 -20 0
-121 -183 0
-10 -121 0
-121 -248 0
-7 -121 0
-10 -183 0
-183 -248 0
-7 -183 0
-10 -248 0
-7 -10 0
-7 -248 0
-85 -96 0
-96 -200 0
-96 -110 0
-96 -209 0
-96 -222 0
-96 -251 0
-96 -264 0
-85 -200 0
-85 -110 0
-85 -209 0
-85 -222 0
-85 -251 0
-85 -264 0
-110 -200 0
-200 -209 0
-200 -222 0
-200 -251 0
-200 -264 0
-110 -209 0
-110 -222 0
-110 -251 0
-110 -264 0
-209 -222 0
-209 -251 0
-209 -264 0
-222 -251 0
-222 -264 0
-251 -264 0
-21 -115 0
-19 -115 0
-17 -115 0
-13 -115 0
-115 -227 0
-27 -115 0
-115 -203 0
-19 -21 0
-17 -21 0
-13 -21 0
-21 -227 0
-21 -27 0
-21 -203 0
-17 -19 0
-13 -19 0
-19 -227 0
-19 -27 0
-19 -203 0
-13 -17 0
-17 -227 0
-17 -27 0
-17 -203 0
-13 -227 0
-13 -27 0
-13 -203 0
-27 -227 0
-203 -227 0
-27 -203 0
-61 -79 0
-61 -62 0
-16 -61 0
-12 -61 0
-9 -61 0
-25 -61 0
-61 -119 0
-62 -79 0
-16 -79 0
-12 -79 0
-9 -79 0
-25 -79 0
-79 -119 0
-16 -62 0
-12 -62 0
-9 -62 0
-25 -62 0
-62 -119 0
-12 -16 0
-9 -16 0
-16 -25 0
-16 -119 0
-9 -12 0
-12 -25 0
-12 -119 0
-9 -25 0
-9 -119 0
-25 -119 0
-95 -155 0
-18 -95 0
-42 -95 0
-95 -214 0
-95 -232 0
-95 -182 0
-91 -95 0
-18 -155 0
-42 -155 0
-155 -214 0
-155 -232 0
-155 -182 0
-91 -155 0
-18 -42 0
-18 -214 0
-18 -232 0
-18 -182 0
-18 -91 0
-42 -214 0
-42 -232 0
-42 -182 0
-42 -91 0
-214 -232 0
-182 -214 0
-91 -214 0
-182 -232 0
-91 -232 0
-91 -182 0
-22 -69 0
-22 -175 0
-15 -22 0
-22 -78 0
-22 -235 0
-22 -255 0
-22 -179 0
-69 -175 0
-15 -69 0
-69 -78 0
-69 -235 0
-69 -255 0
-69 -179 0
-15 -175 0
-78 -175 0
-175 -235 0
-175 -255 0
-175 -179 0
-15 -78 0
-15 -235 0
-15 -255 0
-15 -179 0
-78 -235 0
-78 -255 0
-78 -179 0
-235 -255 0
-179 -235 0
-179 -255 0
-14 -87 0
-11 -87 0
-87 -238 0
-87 -258 0
-87 -267 0
-11 -14 0
-14 -238 0
-14 -258 0
-14 -267 0
-11 -238 0
-11 -258 0
-11 -267 0
-238 -258 0
-238 -267 0
-258 -267 0
-38 -169 0
-169 -219 0
-169 -243 0
-8 -169 0
-112 -169 0
-38 -219 0
-38 -243 0
-8 -38 0
-38 -112 0
-219 -243 0
-8 -219 0
-112 -219 0
-8 -243 0
-112 -243 0
-8 -112 0
-130 -239 0
-129 -239 0
-6 -239 0
-129 -130 0
-6 -130 0
-6 -129 0
-172 -259 0
-154 -259 0
-147 -259 0
-154 -172 0
-147 -172 0
-147 -154 0
-5 -139 0
-4 -223 0
-4 -97 0
-97 -223 0
-3 -37 0
-3 -84 0
-37 -84 0
-239 -259 0
-4 -239 0
-3 -239 0
-4 -259 0
-3 -259 0
-3 -4 0
-130 -172 0
-130 -223 0
-37 -130 0
-172 -223 0
-37 -172 0
-37 -223 0
-129 -154 0
-5 -129 0
-5 -154 0
-6 -147 0
-6 -139 0
-139 -147 0
-84 -97 0
-205 -271 0
-132 -205 0
-132 -271 0
-56 -146 0
-52 -146 0
-49 -146 0
-52 -56 0
-49 -56 0
-49 -52 0
-2 -212 0
-212 -217 0
-135 -212 0
-2 -217 0
-2 -135 0
-135 -217 0
-159 -240 0
-131 -159 0
-159 -244 0
-131 -240 0
-240 -244 0
-131 -244 0
-173 -260 0
-171 -173 0
-1 -173 0
-171 -260 0
-1 -260 0
-1 -171 0
-146 -212 0
-159 -173 0
-56 -205 0
-2 -205 0
-205 -240 0
-205 -260 0
-2 -56 0
-56 -240 0
-56 -260 0
-2 -240 0
-2 -260 0
-240 -260 0
-52 -271 0
-217 -271 0
-131 -271 0
-171 -271 0
-52 -217 0
-52 -131 0
-52 -171 0
-131 -217 0
-171 -217 0
-131 -171 0
-49 -132 0
-132 -135 0
-132 -244 0
-1 -132 0
-49 -135 0
-49 -244 0
-1 -49 0
-135 -244 0
-1 -135 0
-1 -244 0
-107 -118 0
-118 -207 0
-101 -118 0
-107 -207 0
-101 -107 0
-101 -207 0
-88 -230 0
-193 -230 0
-230 -292 0
-99 -230 0
-230 -275 0
-88 -193 0
-88 -292 0
-88 -99 0
-88 -275 0
-193 -292 0
-99 -193 0
-193 -275 0
-99 -292 0
-275 -292 0
-99 -275 0
-137 -280 0
-137 -165 0
-113 -137 0
-103 -137 0
-136 -137 0
-137 -208 0
-93 -137 0
-137 -284 0
-165 -280 0
-113 -280 0
-103 -280 0
-136 -280 0
-208 -280 0
-93 -280 0
-280 -284 0
-113 -165 0
-103 -165 0
-136 -165 0
-165 -208 0
-93 -165 0
-165 -284 0
-103 -113 0
-113 -136 0
-113 -208 0
-93 -113 0
-113 -284 0
-103 -136 0
-103 -208 0
-93 -103 0
-103 -284 0
-136 -208 0
-93 -136 0
-136 -284 0
-93 -208 0
-208 -284 0
-93 -284 0
-202 -297 0
-202 -256 0
-163 -202 0
-102 -202 0
-92 -202 0
-256 -297 0
-163 -297 0
-102 -297 0
-92 -297 0
-163 -256 0
-102 -256 0
-92 -256 0
-102 -163 0
-92 -163 0
-92 -102 0
-29 -181 0
-29 -90 0
-90 -181 0
-96 -148 0
-115 -148 0
-141 -148 0
-85 -148 0
-21 -148 0
-96 -115 0
-96 -141 0
-85 -96 0
-21 -96 0
-115 -141 0
-85 -115 0
-21 -115 0
-85 -141 0
-21 -141 0
-21 -85 0
-130 -239 0
-239 -259 0
-172 -239 0
-130 -259 0
-130 -172 0
-172 -259 0
-170 -186 0
-82 -186 0
-74 -186 0
-82 -170 0
-74 -170 0
-74 -82 0
-177 -192 0
-77 -177 0
-77 -192 0
-109 -140 0
-109 -281 0
-109 -187 0
-109 -195 0
-109 -197 0
-81 -109 0
-109 -128 0
-73 -109 0
-140 -281 0
-140 -187 0
-140 -195 0
-140 -197 0
-81 -140 0
-128 -140 0
-73 -140 0
-187 -281 0
-195 -281 0
-197 -281 0
-81 -281 0
-128 -281 0
-73 -281 0
-187 -195 0
-187 -197 0
-81 -187 0
-128 -187 0
-73 -187 0
-195 -197 0
-81 -195 0
-128 -195 0
-73 -195 0
-81 -197 0
-128 -197 0
-73 -197 0
-81 -128 0
-73 -81 0
-73 -128 0
-189 -261 0
-151 -189 0
-125 -189 0
-151 -261 0
-125 -261 0
-125 -151 0
-178 -298 0
-178 -196 0
-178 -198 0
-75 -178 0
-71 -178 0
-196 -298 0
-198 -298 0
-75 -298 0
-71 -298 0
-196 -198 0
-75 -196 0
-71 -196 0
-75 -198 0
-71 -198 0
-71 -75 0
-28 -250 0
-250 -263 0
-204 -250 0
-123 -250 0
-111 -250 0
-28 -263 0
-28 -204 0
-28 -123 0
-28 -111 0
-204 -263 0
-123 -263 0
-111 -263 0
-123 -204 0
-111 -204 0
-111 -123 0
-61 -95 0
-22 -61 0
-61 -79 0
-61 -155 0
-61 -69 0
-22 -95 0
-79 -95 0
-95 -155 0
-69 -95 0
-22 -79 0
-22 -155 0
-22 -69 0
-79 -155 0
-69 -79 0
-69 -155 0
-6 -129 0
-129 -154 0
-129 -147 0
-6 -154 0
-6 -147 0
-147 -154 0
-144 -247 0
-210 -247 0
-247 -276 0
-106 -247 0
-247 -278 0
-144 -210 0
-144 -276 0
-106 -144 0
-144 -278 0
-210 -276 0
-106 -210 0
-210 -278 0
-106 -276 0
-276 -278 0
-106 -278 0
-153 -282 0
-126 -282 0
-160 -282 0
-282 -283 0
-168 -282 0
-166 -282 0
-143 -282 0
-282 -285 0
-126 -153 0
-153 -160 0
-153 -283 0
-153 -168 0
-153 -166 0
-143 -153 0
-153 -285 0
-126 -160 0
-126 -283 0
-126 -168 0
-126 -166 0
-126 -143 0
-126 -285 0
-160 -283 0
-160 -168 0
-160 -166 0
-143 -160 0
-160 -285 0
-168 -283 0
-166 -283 0
-143 -283 0
-283 -285 0
-166 -168 0
-143 -168 0
-168 -285 0
-143 -166 0
-166 -285 0
-143 -285 0
-134 -265 0
-48 -299 0
-46 -299 0
-41 -299 0
-35 -299 0
-105 -299 0
-67 -299 0
-66 -299 0
-34 -299 0
-46 -48 0
-41 -48 0
-35 -48 0
-48 -105 0
-48 -67 0
-48 -66 0
-34 -48 0
-41 -46 0
-35 -46 0
-46 -105 0
-46 -67 0
-46 -66 0
-34 -46 0
-35 -41 0
-41 -105 0
-41 -67 0
-41 -66 0
-34 -41 0
-35 -105 0
-35 -67 0
-35 -66 0
-34 -35 0
-67 -105 0
-66 -105 0
-34 -105 0
-66 -67 0
-34 -67 0
-34 -66 0
-26 -254 0
-26 -120 0
-26 -180 0
-26 -161 0
-24 -26 0
-120 -254 0
-180 -254 0
-161 -254 0
-24 -254 0
-120 -180 0
-120 -161 0
-24 -120 0
-161 -180 0
-24 -180 0
-24 -161 0
-205 -271 0
-132 -205 0
-132 -271 0
-45 -47 0
-47 -114 0
-47 -104 0
-45 -114 0
-45 -104 0
-104 -114 0
-65 -224 0
-149 -224 0
-76 -224 0
-117 -224 0
-224 -286 0
-36 -224 0
-206 -224 0
-142 -224 0
-65 -149 0
-65 -76 0
-65 -117 0
-65 -286 0
-36 -65 0
-65 -206 0
-65 -142 0
-76 -149 0
-117 -149 0
-149 -286 0
-36 -149 0
-149 -206 0
-142 -149 0
-76 -117 0
-76 -286 0
-36 -76 0
-76 -206 0
-76 -142 0
-117 -286 0
-36 -117 0
-117 -206 0
-117 -142 0
-36 -286 0
-206 -286 0
-142 -286 0
-36 -206 0
-36 -142 0
-142 -206 0
-164 -294 0
-127 -294 0
-108 -294 0
-127 -164 0
-108 -164 0
-108 -127 0
-20 -200 0
-19 -20 0
-20 -121 0
-20 -110 0
-17 -20 0
-20 -183 0
-20 -209 0
-13 -20 0
-19 -200 0
-121 -200 0
-110 -200 0
-17 -200 0
-183 -200 0
-200 -209 0
-13 -200 0
-19 -121 0
-19 -110 0
-17 -19 0
-19 -183 0
-19 -209 0
-13 -19 0
-110 -121 0
-17 -121 0
-121 -183 0
-121 -209 0
-13 -121 0
-17 -110 0
-110 -183 0
-110 -209 0
-13 -110 0
-17 -183 0
-17 -209 0
-13 -17 0
-183 -209 0
-13 -183 0
-13 -209 0
-146 -212 0
-64 -116 0
-60 -64 0
-64 -287 0
-64 -185 0
-64 -288 0
-64 -86 0
-64 -213 0
-64 -80 0
-60 -116 0
-116 -287 0
-116 -185 0
-116 -288 0
-86 -116 0
-116 -213 0
-80 -116 0
-60 -287 0
-60 -185 0
-60 -288 0
-60 -86 0
-60 -213 0
-60 -80 0
-185 -287 0
-287 -288 0
-86 -287 0
-213 -287 0
-80 -287 0
-185 -288 0
-86 -185 0
-185 -213 0
-80 -185 0
-86 -288 0
-213 -288 0
-80 -288 0
-86 -213 0
-80 -86 0
-80 -213 0
-158 -295 0
-158 -174 0
-44 -158 0
-174 -295 0
-44 -295 0
-44 -174 0
-83 -216 0
-18 -62 0
-62 -175 0
-16 -62 0
-42 -62 0
-15 -62 0
-12 -62 0
-62 -214 0
-62 -78 0
-18 -175 0
-16 -18 0
-18 -42 0
-15 -18 0
-12 -18 0
-18 -214 0
-18 -78 0
-16 -175 0
-42 -175 0
-15 -175 0
-12 -175 0
-175 -214 0
-78 -175 0
-16 -42 0
-15 -16 0
-12 -16 0
-16 -214 0
-16 -78 0
-15 -42 0
-12 -42 0
-42 -214 0
-42 -78 0
-12 -15 0
-15 -214 0
-15 -78 0
-12 -214 0
-12 -78 0
-78 -214 0
-5 -139 0
-40 -199 0
-72 -199 0
-68 -199 0
-40 -72 0
-40 -68 0
-68 -72 0
-124 -162 0
-55 -94 0
-51 -94 0
-94 -289 0
-94 -290 0
-39 -94 0
-94 -156 0
-70 -94 0
-94 -218 0
-51 -55 0
-55 -289 0
-55 -290 0
-39 -55 0
-55 -156 0
-55 -70 0
-55 -218 0
-51 -289 0
-51 -290 0
-39 -51 0
-51 -156 0
-51 -70 0
-51 -218 0
-289 -290 0
-39 -289 0
-156 -289 0
-70 -289 0
-218 -289 0
-39 -290 0
-156 -290 0
-70 -290 0
-218 -290 0
-39 -156 0
-39 -70 0
-39 -218 0
-70 -156 0
-156 -218 0
-70 -218 0
-54 -58 0
-58 -150 0
-54 -150 0
-87 -169 0
-14 -87 0
-38 -87 0
-11 -87 0
-87 -219 0
-14 -169 0
-38 -169 0
-11 -169 0
-169 -219 0
-14 -38 0
-11 -14 0
-14 -219 0
-11 -38 0
-38 -219 0
-11 -219 0
-52 -56 0
-49 -56 0
-2 -56 0
-56 -217 0
-56 -135 0
-49 -52 0
-2 -52 0
-52 -217 0
-52 -135 0
-2 -49 0
-49 -217 0
-49 -135 0
-2 -217 0
-2 -135 0
-135 -217 0
-249 -279 0
-220 -291 0
-225 -291 0
-245 -291 0
-176 -291 0
-122 -291 0
-157 -291 0
-191 -291 0
-184 -291 0
-220 -225 0
-220 -245 0
-176 -220 0
-122 -220 0
-157 -220 0
-191 -220 0
-184 -220 0
-225 -245 0
-176 -225 0
-122 -225 0
-157 -225 0
-191 -225 0
-184 -225 0
-176 -245 0
-122 -245 0
-157 -245 0
-191 -245 0
-184 -245 0
-122 -176 0
-157 -176 0
-176 -191 0
-176 -184 0
-122 -157 0
-122 -191 0
-122 -184 0
-157 -191 0
-157 -184 0
-184 -191 0
-226 -296 0
-33 -221 0
-33 -53 0
-33 -50 0
-33 -188 0
-33 -262 0
-53 -221 0
-50 -221 0
-188 -221 0
-221 -262 0
-50 -53 0
-53 -188 0
-53 -262 0
-50 -188 0
-50 -262 0
-188 -262 0
-10 -222 0
-10 -227 0
-10 -248 0
-10 -251 0
-10 -27 0
-7 -10 0
-10 -264 0
-10 -203 0
-222 -227 0
-222 -248 0
-222 -251 0
-27 -222 0
-7 -222 0
-222 -264 0
-203 -222 0
-227 -248 0
-227 -251 0
-27 -227 0
-7 -227 0
-227 -264 0
-203 -227 0
-248 -251 0
-27 -248 0
-7 -248 0
-248 -264 0
-203 -248 0
-27 -251 0
-7 -251 0
-251 -264 0
-203 -251 0
-7 -27 0
-27 -264 0
-27 -203 0
-7 -264 0
-7 -203 0
-203 -264 0
-4 -223 0
-3 -4 0
-4 -37 0
-3 -223 0
-37 -223 0
-3 -37 0
-233 -270 0
-133 -270 0
-270 -272 0
-133 -233 0
-233 -272 0
-133 -272 0
-201 -228 0
-63 -201 0
-201 -246 0
-167 -201 0
-145 -201 0
-201 -211 0
-100 -201 0
-201 -277 0
-63 -228 0
-228 -246 0
-167 -228 0
-145 -228 0
-211 -228 0
-100 -228 0
-228 -277 0
-63 -246 0
-63 -167 0
-63 -145 0
-63 -211 0
-63 -100 0
-63 -277 0
-167 -246 0
-145 -246 0
-211 -246 0
-100 -246 0
-246 -277 0
-145 -167 0
-167 -211 0
-100 -167 0
-167 -277 0
-145 -211 0
-100 -145 0
-145 -277 0
-100 -211 0
-211 -277 0
-100 -277 0
-231 -234 0
-231 -252 0
-231 -253 0
-231 -266 0
-31 -231 0
-234 -252 0
-234 -253 0
-234 -266 0
-31 -234 0
-252 -253 0
-252 -266 0
-31 -252 0
-253 -266 0
-31 -253 0
-31 -266 0
-9 -232 0
-9 -235 0
-9 -25 0
-9 -182 0
-9 -255 0
-9 -119 0
-9 -91 0
-9 -179 0
-232 -235 0
-25 -232 0
-182 -232 0
-232 -255 0
-119 -232 0
-91 -232 0
-179 -232 0
-25 -235 0
-182 -235 0
-235 -255 0
-119 -235 0
-91 -235 0
-179 -235 0
-25 -182 0
-25 -255 0
-25 -119 0
-25 -91 0
-25 -179 0
-182 -255 0
-119 -182 0
-91 -182 0
-179 -182 0
-119 -255 0
-91 -255 0
-179 -255 0
-91 -119 0
-119 -179 0
-91 -179 0
-159 -173 0
-59 -241 0
-241 -273 0
-241 -268 0
-59 -273 0
-59 -268 0
-268 -273 0
-229 -236 0
-89 -236 0
-43 -236 0
-194 -236 0
-236 -293 0
-215 -236 0
-98 -236 0
-236 -274 0
-89 -229 0
-43 -229 0
-194 -229 0
-229 -293 0
-215 -229 0
-98 -229 0
-229 -274 0
-43 -89 0
-89 -194 0
-89 -293 0
-89 -215 0
-89 -98 0
-89 -274 0
-43 -194 0
-43 -293 0
-43 -215 0
-43 -98 0
-43 -274 0
-194 -293 0
-194 -215 0
-98 -194 0
-194 -274 0
-215 -293 0
-98 -293 0
-274 -293 0
-98 -215 0
-215 -274 0
-98 -274 0
-237 -242 0
-57 -237 0
-190 -237 0
-138 -237 0
-32 -237 0
-152 -237 0
-30 -237 0
-237 -269 0
-57 -242 0
-190 -242 0
-138 -242 0
-32 -242 0
-152 -242 0
-30 -242 0
-242 -269 0
-57 -190 0
-57 -138 0
-32 -57 0
-57 -152 0
-30 -57 0
-57 -269 0
-138 -190 0
-32 -190 0
-152 -190 0
-30 -190 0
-190 -269 0
-32 -138 0
-138 -152 0
-30 -138 0
-138 -269 0
-32 -152 0
-30 -32 0
-32 -269 0
-30 -152 0
-152 -269 0
-30 -269 0
-23 -257 0
-238 -243 0
-238 -258 0
-8 -238 0
-238 -267 0
-112 -238 0
-243 -258 0
-8 -243 0
-243 -267 0
-112 -243 0
-8 -258 0
-258 -267 0
-112 -258 0
-8 -267 0
-8 -112 0
-112 -267 0
-84 -97 0
-131 -240 0
-240 -244 0
-240 -260 0
-171 -240 0
-1 -240 0
-131 -244 0
-131 -260 0
-131 -171 0
-1 -131 0
-244 -260 0
-171 -244 0
-1 -244 0
-171 -260 0
-1 -260 0
-1 -171 0
